8
10
35
0 0 0
10 15 5
25 35 7
35 12 3
48 33 6
56 47 4
32 52 8
20 38 5
42 25 9
15 45 4
65 28 7
29 17 6
77 33 8
38 66 5
52 15 9
28 75 7
85 42 4
44 62 6
36 23 3
57 54 5
12 33 6
32 52 8
20 38 5
42 25 9
15 45 4
65 28 7
29 17 6
77 33 8
38 66 5
52 15 9
28 75 7
85 42 4
44 62 6
36 23 3
57 54 5
12 33 6
24 48 4
66 18 7
31 43 5
49 49 9
18 59 4
41 37 8
53 63 6
30 21 3
76 45 5
22 66 4
24 48 4
66 18 7
31 43 5
49 49 9
18 59 4
41 37 8
53 63 6
30 21 3
76 45 5
22 66 4
37 12 6
61 26 8
70 55 4
33 28 7
14 50 5
60 39 6
27 60 4
43 33 9
19 24 6
55 72 5